assets/logs/5_8x8_clingo/5_8x8_clingo.solution.log

---------------------------------
| 44|  0| 40| 50| 32| 21| 36| 13|
---------------------------------
|  1| 52| 46| 19| 38| 11| 30| 23|
---------------------------------
| 59| 42|  1| 41| 48| 34| 15|  9|
---------------------------------
| 54|  8| 37| 55| 17| 43| 25| 28|
---------------------------------
| 35| 57| 56| 10| 39| 29|  7| 45|
---------------------------------
|  6| 16| 33| 20| 53| 47| 26| 27|
---------------------------------
|  1| 58| 12|  2| 31| 22| 51|  5|
---------------------------------
| 14|  4| 18|  1| 49|  3|  1| 24|
---------------------------------

| n = 8 | k = 5 | coverage = 63, 98.4375%
 Time 299.979
 Name 5_8x8_clingo

