assets/logs/5_8x8_clingo/5_8x8_clingo.log
clingo version 5.4.0
Reading from ...sets/logs/5_8x8_clingo/knights_tour.lp ...
Solving...
Answer: 1
occ(1,8,4) occ(1,7,1) occ(1,8,7) occ(1,3,3) occ(1,2,1) occ(2,7,4) occ(3,8,6) coverage(6)
Optimization: -6
Answer: 2
occ(1,8,4) occ(1,7,1) occ(1,8,7) occ(1,3,3) occ(1,2,1) occ(2,7,4) occ(3,8,6) coverage(7) occ(6,6,1) occ(4,8,2)
Optimization: -7
Answer: 3
occ(1,8,4) occ(1,7,1) occ(1,8,7) occ(1,3,3) occ(1,2,1) occ(2,7,4) occ(3,8,6) coverage(20) occ(8,1,3) occ(14,1,2) occ(17,1,6) occ(33,1,4) occ(39,1,7) occ(12,2,4) occ(15,2,8) occ(31,2,2) occ(35,2,6) occ(41,2,5) occ(6,3,4) occ(10,3,2) occ(16,3,1) occ(19,3,5) occ(37,3,8) occ(43,3,7) occ(13,4,7) occ(29,4,1) occ(4,5,3) occ(7,5,7) occ(11,5,5) occ(18,5,2) occ(21,5,4) occ(45,5,8) occ(49,5,6) occ(27,6,2) occ(51,6,8) occ(5,7,8) occ(9,7,6) occ(23,7,5) occ(47,7,7) occ(25,8,3)
Optimization: -20
Answer: 4
occ(1,8,4) occ(1,7,1) occ(1,8,7) occ(1,3,3) occ(1,2,1) occ(2,7,4) occ(3,8,6) coverage(22) occ(8,1,3) occ(14,1,2) occ(17,1,6) occ(33,1,4) occ(39,1,7) occ(12,2,4) occ(15,2,8) occ(31,2,2) occ(35,2,6) occ(41,2,5) occ(6,3,4) occ(10,3,2) occ(16,3,1) occ(19,3,5) occ(37,3,8) occ(43,3,7) occ(13,4,7) occ(29,4,1) occ(4,5,3) occ(7,5,7) occ(11,5,5) occ(18,5,2) occ(21,5,4) occ(45,5,8) occ(49,5,6) occ(27,6,2) occ(51,6,8) occ(5,7,8) occ(9,7,6) occ(20,7,3) occ(23,7,5) occ(47,7,7) occ(25,8,3)
Optimization: -22
Answer: 5
occ(1,8,4) occ(1,7,1) occ(1,8,7) occ(1,3,3) occ(1,2,1) occ(2,7,4) occ(3,8,6) coverage(24) occ(8,1,3) occ(14,1,2) occ(17,1,6) occ(33,1,4) occ(39,1,7) occ(12,2,4) occ(15,2,8) occ(31,2,2) occ(35,2,6) occ(41,2,5) occ(6,3,4) occ(10,3,2) occ(16,3,1) occ(19,3,5) occ(37,3,8) occ(43,3,7) occ(13,4,7) occ(29,4,1) occ(4,5,3) occ(7,5,7) occ(11,5,5) occ(18,5,2) occ(21,5,4) occ(45,5,8) occ(49,5,6) occ(27,6,2) occ(51,6,8) occ(5,7,8) occ(9,7,6) occ(20,7,3) occ(23,7,5) occ(47,7,7) occ(22,8,1) occ(25,8,3)
Optimization: -24
Answer: 6
occ(1,8,4) occ(1,7,1) occ(1,8,7) occ(1,3,3) occ(1,2,1) occ(2,7,4) occ(3,8,6) coverage(26) occ(8,1,3) occ(14,1,2) occ(17,1,6) occ(33,1,4) occ(39,1,7) occ(12,2,4) occ(15,2,8) occ(31,2,2) occ(35,2,6) occ(41,2,5) occ(6,3,4) occ(10,3,2) occ(16,3,1) occ(19,3,5) occ(37,3,8) occ(43,3,7) occ(13,4,7) occ(29,4,1) occ(4,5,3) occ(7,5,7) occ(11,5,5) occ(18,5,2) occ(21,5,4) occ(45,5,8) occ(49,5,6) occ(22,6,1) occ(27,6,2) occ(51,6,8) occ(5,7,8) occ(9,7,6) occ(20,7,3) occ(23,7,5) occ(47,7,7) occ(24,8,2) occ(25,8,3)
Optimization: -26
Answer: 7
occ(1,8,4) occ(1,7,1) occ(1,8,7) occ(1,3,3) occ(1,2,1) occ(2,7,4) occ(3,8,6) coverage(28) occ(8,1,3) occ(14,1,2) occ(17,1,6) occ(33,1,4) occ(39,1,7) occ(12,2,4) occ(15,2,8) occ(26,2,3) occ(31,2,2) occ(35,2,6) occ(41,2,5) occ(6,3,4) occ(10,3,2) occ(16,3,1) occ(19,3,5) occ(37,3,8) occ(43,3,7) occ(13,4,7) occ(24,4,2) occ(29,4,1) occ(4,5,3) occ(7,5,7) occ(11,5,5) occ(18,5,2) occ(21,5,4) occ(45,5,8) occ(49,5,6) occ(22,6,1) occ(27,6,2) occ(51,6,8) occ(5,7,8) occ(9,7,6) occ(20,7,3) occ(23,7,5) occ(47,7,7) occ(25,8,3)
Optimization: -28
Answer: 8
occ(1,8,4) occ(1,7,1) occ(1,8,7) occ(1,3,3) occ(1,2,1) occ(2,7,4) occ(3,8,6) coverage(30) occ(8,1,3) occ(14,1,2) occ(17,1,6) occ(28,1,5) occ(33,1,4) occ(39,1,7) occ(12,2,4) occ(15,2,8) occ(26,2,7) occ(31,2,2) occ(35,2,6) occ(41,2,5) occ(6,3,4) occ(10,3,2) occ(16,3,1) occ(19,3,5) occ(22,3,6) occ(37,3,8) occ(43,3,7) occ(13,4,7) occ(20,4,4) occ(24,4,8) occ(29,4,1) occ(4,5,3) occ(7,5,7) occ(11,5,5) occ(18,5,2) occ(21,5,4) occ(45,5,8) occ(49,5,6) occ(27,6,2) occ(51,6,8) occ(5,7,8) occ(9,7,6) occ(23,7,5) occ(47,7,7) occ(25,8,3)
Optimization: -30
Answer: 9
occ(1,8,4) occ(1,7,1) occ(1,8,7) occ(1,3,3) occ(1,2,1) occ(2,7,4) occ(3,8,6) coverage(32) occ(8,1,3) occ(14,1,2) occ(17,1,6) occ(28,1,5) occ(33,1,4) occ(39,1,7) occ(12,2,4) occ(15,2,8) occ(26,2,7) occ(30,2,3) occ(31,2,2) occ(35,2,6) occ(41,2,5) occ(6,3,4) occ(10,3,2) occ(16,3,1) occ(19,3,5) occ(22,3,6) occ(37,3,8) occ(43,3,7) occ(13,4,7) occ(20,4,4) occ(24,4,8) occ(29,4,1) occ(4,5,3) occ(7,5,7) occ(11,5,5) occ(18,5,2) occ(21,5,4) occ(45,5,8) occ(49,5,6) occ(27,6,2) occ(51,6,8) occ(5,7,8) occ(9,7,6) occ(23,7,5) occ(47,7,7) occ(25,8,3)
Optimization: -32
Answer: 10
occ(1,8,4) occ(1,7,1) occ(1,8,7) occ(1,3,3) occ(1,2,1) occ(2,7,4) occ(3,8,6) coverage(34) occ(8,1,3) occ(14,1,2) occ(17,1,6) occ(28,1,5) occ(32,1,1) occ(33,1,4) occ(39,1,7) occ(12,2,4) occ(15,2,8) occ(26,2,7) occ(30,2,3) occ(31,2,2) occ(35,2,6) occ(41,2,5) occ(6,3,4) occ(10,3,2) occ(16,3,1) occ(19,3,5) occ(22,3,6) occ(37,3,8) occ(43,3,7) occ(13,4,7) occ(20,4,4) occ(24,4,8) occ(29,4,1) occ(4,5,3) occ(7,5,7) occ(11,5,5) occ(18,5,2) occ(21,5,4) occ(45,5,8) occ(49,5,6) occ(27,6,2) occ(51,6,8) occ(5,7,8) occ(9,7,6) occ(23,7,5) occ(47,7,7) occ(25,8,3)
Optimization: -34
Answer: 11
occ(1,8,4) occ(1,7,1) occ(1,8,7) occ(1,3,3) occ(1,2,1) occ(2,7,4) occ(3,8,6) coverage(36) occ(8,1,3) occ(14,1,2) occ(17,1,6) occ(28,1,5) occ(33,1,4) occ(39,1,7) occ(12,2,4) occ(15,2,8) occ(26,2,7) occ(30,2,3) occ(31,2,2) occ(35,2,6) occ(41,2,5) occ(6,3,4) occ(10,3,2) occ(16,3,1) occ(19,3,5) occ(22,3,6) occ(37,3,8) occ(43,3,7) occ(13,4,7) occ(20,4,4) occ(24,4,8) occ(29,4,1) occ(32,4,2) occ(4,5,3) occ(7,5,7) occ(11,5,5) occ(18,5,2) occ(21,5,4) occ(45,5,8) occ(49,5,6) occ(27,6,2) occ(34,6,1) occ(51,6,8) occ(5,7,8) occ(9,7,6) occ(23,7,5) occ(47,7,7) occ(25,8,3)
Optimization: -36
Answer: 12
occ(1,8,4) occ(1,7,1) occ(1,8,7) occ(1,3,3) occ(1,2,1) occ(2,7,4) occ(3,8,6) coverage(38) occ(8,1,3) occ(14,1,2) occ(17,1,6) occ(28,1,5) occ(33,1,4) occ(39,1,7) occ(12,2,4) occ(15,2,8) occ(26,2,7) occ(30,2,3) occ(31,2,2) occ(35,2,6) occ(41,2,5) occ(6,3,4) occ(10,3,2) occ(16,3,1) occ(19,3,5) occ(22,3,6) occ(37,3,8) occ(43,3,7) occ(13,4,7) occ(20,4,4) occ(24,4,8) occ(29,4,1) occ(32,4,2) occ(4,5,3) occ(7,5,7) occ(11,5,5) occ(18,5,2) occ(21,5,4) occ(45,5,8) occ(49,5,6) occ(27,6,2) occ(34,6,1) occ(51,6,8) occ(5,7,8) occ(9,7,6) occ(23,7,5) occ(47,7,7) occ(25,8,3) occ(36,8,2)
Optimization: -38
Answer: 13
occ(1,8,4) occ(1,7,1) occ(1,8,7) occ(1,3,3) occ(1,2,1) occ(2,7,4) occ(3,8,6) coverage(40) occ(8,1,3) occ(14,1,2) occ(17,1,6) occ(28,1,5) occ(33,1,4) occ(39,1,7) occ(12,2,4) occ(15,2,8) occ(26,2,7) occ(30,2,3) occ(31,2,2) occ(35,2,6) occ(41,2,5) occ(6,3,4) occ(10,3,2) occ(16,3,1) occ(19,3,5) occ(22,3,6) occ(37,3,8) occ(43,3,7) occ(13,4,7) occ(20,4,4) occ(24,4,8) occ(29,4,1) occ(32,4,2) occ(4,5,3) occ(7,5,7) occ(11,5,5) occ(18,5,2) occ(21,5,4) occ(45,5,8) occ(49,5,6) occ(27,6,2) occ(34,6,1) occ(51,6,8) occ(5,7,8) occ(9,7,6) occ(23,7,5) occ(36,7,3) occ(47,7,7) occ(25,8,3) occ(38,8,5)
Optimization: -40
Answer: 14
occ(1,8,4) occ(1,7,1) occ(1,8,7) occ(1,3,3) occ(1,2,1) occ(2,7,4) occ(3,8,6) coverage(42) occ(8,1,3) occ(14,1,2) occ(17,1,6) occ(32,1,5) occ(33,1,4) occ(39,1,7) occ(12,2,4) occ(15,2,8) occ(31,2,2) occ(34,2,3) occ(35,2,6) occ(41,2,5) occ(6,3,4) occ(10,3,2) occ(16,3,1) occ(19,3,5) occ(30,3,6) occ(37,3,8) occ(43,3,7) occ(13,4,7) occ(24,4,6) occ(28,4,8) occ(29,4,1) occ(36,4,2) occ(4,5,3) occ(7,5,7) occ(11,5,5) occ(18,5,2) occ(21,5,4) occ(45,5,8) occ(49,5,6) occ(22,6,5) occ(26,6,7) occ(27,6,2) occ(38,6,1) occ(51,6,8) occ(5,7,8) occ(9,7,6) occ(20,7,3) occ(23,7,5) occ(47,7,7) occ(25,8,3) occ(40,8,2)
Optimization: -42
Answer: 15
occ(1,8,4) occ(1,7,1) occ(1,8,7) occ(1,3,3) occ(1,2,1) occ(2,7,4) occ(3,8,6) coverage(44) occ(8,1,3) occ(14,1,2) occ(17,1,6) occ(32,1,5) occ(33,1,4) occ(39,1,7) occ(12,2,4) occ(15,2,8) occ(31,2,2) occ(34,2,3) occ(35,2,6) occ(41,2,5) occ(6,3,4) occ(10,3,2) occ(16,3,1) occ(19,3,5) occ(30,3,6) occ(37,3,8) occ(43,3,7) occ(13,4,7) occ(24,4,6) occ(28,4,8) occ(29,4,1) occ(36,4,2) occ(4,5,3) occ(7,5,7) occ(11,5,5) occ(18,5,2) occ(21,5,4) occ(45,5,8) occ(49,5,6) occ(22,6,5) occ(26,6,7) occ(27,6,2) occ(38,6,1) occ(42,6,3) occ(51,6,8) occ(5,7,8) occ(9,7,6) occ(20,7,3) occ(23,7,5) occ(47,7,7) occ(25,8,3) occ(40,8,2)
Optimization: -44
Answer: 16
occ(1,8,4) occ(1,7,1) occ(1,8,7) occ(1,3,3) occ(1,2,1) occ(2,7,4) occ(3,8,6) coverage(46) occ(8,1,3) occ(14,1,2) occ(17,1,6) occ(32,1,5) occ(33,1,4) occ(39,1,7) occ(12,2,4) occ(15,2,8) occ(31,2,2) occ(34,2,3) occ(35,2,6) occ(41,2,5) occ(6,3,4) occ(10,3,2) occ(16,3,1) occ(19,3,5) occ(30,3,6) occ(37,3,8) occ(43,3,7) occ(13,4,7) occ(24,4,6) occ(28,4,8) occ(29,4,1) occ(36,4,2) occ(4,5,3) occ(7,5,7) occ(11,5,5) occ(18,5,2) occ(21,5,4) occ(44,5,1) occ(45,5,8) occ(49,5,6) occ(22,6,5) occ(26,6,7) occ(27,6,2) occ(38,6,1) occ(42,6,3) occ(51,6,8) occ(5,7,8) occ(9,7,6) occ(20,7,3) occ(23,7,5) occ(47,7,7) occ(25,8,3) occ(40,8,2)
Optimization: -46
Answer: 17
occ(1,8,4) occ(1,7,1) occ(1,8,7) occ(1,3,3) occ(1,2,1) occ(2,7,4) occ(3,8,6) coverage(48) occ(8,1,3) occ(14,1,2) occ(17,1,6) occ(32,1,5) occ(33,1,4) occ(39,1,7) occ(12,2,4) occ(15,2,8) occ(31,2,2) occ(34,2,3) occ(35,2,6) occ(41,2,5) occ(6,3,4) occ(10,3,2) occ(16,3,1) occ(19,3,5) occ(30,3,6) occ(37,3,8) occ(43,3,7) occ(13,4,7) occ(24,4,6) occ(28,4,8) occ(29,4,1) occ(36,4,2) occ(4,5,3) occ(7,5,7) occ(11,5,5) occ(18,5,2) occ(21,5,4) occ(44,5,1) occ(45,5,8) occ(49,5,6) occ(22,6,5) occ(26,6,7) occ(27,6,2) occ(38,6,1) occ(42,6,3) occ(51,6,8) occ(5,7,8) occ(9,7,6) occ(20,7,3) occ(23,7,5) occ(46,7,2) occ(47,7,7) occ(25,8,3) occ(40,8,2)
Optimization: -48
Answer: 18
occ(1,8,4) occ(1,7,1) occ(1,8,7) occ(1,3,3) occ(1,2,1) occ(2,7,4) occ(3,8,6) coverage(50) occ(8,1,3) occ(14,1,2) occ(17,1,6) occ(32,1,5) occ(33,1,4) occ(39,1,7) occ(12,2,4) occ(15,2,8) occ(31,2,2) occ(34,2,3) occ(35,2,6) occ(41,2,5) occ(6,3,4) occ(10,3,2) occ(16,3,1) occ(19,3,5) occ(30,3,6) occ(37,3,8) occ(43,3,7) occ(13,4,7) occ(24,4,6) occ(28,4,8) occ(29,4,1) occ(36,4,2) occ(4,5,3) occ(7,5,7) occ(11,5,5) occ(18,5,2) occ(21,5,4) occ(44,5,1) occ(45,5,8) occ(49,5,6) occ(22,6,5) occ(26,6,7) occ(27,6,2) occ(38,6,1) occ(42,6,3) occ(48,6,4) occ(51,6,8) occ(5,7,8) occ(9,7,6) occ(20,7,3) occ(23,7,5) occ(46,7,2) occ(47,7,7) occ(25,8,3) occ(40,8,2)
Optimization: -50
Answer: 19
occ(1,8,4) occ(1,7,1) occ(1,8,7) occ(1,3,3) occ(1,2,1) occ(2,7,4) occ(3,8,6) coverage(52) occ(8,1,3) occ(14,1,2) occ(17,1,6) occ(32,1,5) occ(33,1,4) occ(39,1,7) occ(12,2,4) occ(15,2,8) occ(31,2,2) occ(34,2,3) occ(35,2,6) occ(41,2,5) occ(6,3,4) occ(10,3,2) occ(16,3,1) occ(19,3,5) occ(30,3,6) occ(37,3,8) occ(43,3,7) occ(13,4,7) occ(24,4,6) occ(28,4,8) occ(29,4,1) occ(36,4,2) occ(4,5,3) occ(7,5,7) occ(11,5,5) occ(18,5,2) occ(21,5,4) occ(44,5,1) occ(45,5,8) occ(49,5,6) occ(22,6,5) occ(26,6,7) occ(27,6,2) occ(38,6,1) occ(42,6,3) occ(48,6,4) occ(51,6,8) occ(5,7,8) occ(9,7,6) occ(20,7,3) occ(23,7,5) occ(46,7,2) occ(47,7,7) occ(25,8,3) occ(40,8,2) occ(50,8,5)
Optimization: -52
Answer: 20
occ(1,8,4) occ(1,7,1) occ(1,8,7) occ(1,3,3) occ(1,2,1) occ(2,7,4) occ(3,8,6) coverage(53) occ(8,1,3) occ(14,1,2) occ(17,1,6) occ(32,1,5) occ(33,1,4) occ(39,1,7) occ(12,2,4) occ(15,2,8) occ(31,2,2) occ(34,2,3) occ(35,2,6) occ(41,2,5) occ(6,3,4) occ(10,3,2) occ(16,3,1) occ(19,3,5) occ(30,3,6) occ(37,3,8) occ(43,3,7) occ(13,4,7) occ(20,4,4) occ(24,4,6) occ(28,4,8) occ(29,4,1) occ(36,4,2) occ(50,4,5) occ(4,5,3) occ(7,5,7) occ(11,5,5) occ(18,5,2) occ(21,5,4) occ(44,5,1) occ(45,5,8) occ(49,5,6) occ(22,6,5) occ(26,6,7) occ(27,6,2) occ(38,6,1) occ(42,6,3) occ(48,6,4) occ(51,6,8) occ(52,6,6) occ(5,7,8) occ(9,7,6) occ(23,7,5) occ(46,7,2) occ(47,7,7) occ(56,7,3) occ(25,8,3) occ(40,8,2) occ(54,8,5) occ(58,8,1)
Optimization: -53
Answer: 21
occ(1,8,4) occ(1,7,1) occ(1,8,7) occ(1,3,3) occ(1,2,1) occ(2,7,4) occ(3,8,6) coverage(56) occ(16,1,5) occ(20,1,1) occ(24,1,3) occ(28,1,7) occ(29,1,6) occ(50,1,4) occ(18,2,3) occ(26,2,5) occ(27,2,8) occ(32,2,6) occ(48,2,2) occ(54,2,7) occ(14,3,4) occ(22,3,2) occ(25,3,6) occ(30,3,8) occ(31,3,7) occ(44,3,1) occ(52,3,5) occ(8,4,2) occ(9,4,5) occ(12,4,6) occ(34,4,7) occ(40,4,4) occ(46,4,3) occ(7,5,3) occ(10,5,4) occ(15,5,7) occ(23,5,5) occ(33,5,8) occ(38,5,6) occ(42,5,2) occ(51,5,1) occ(5,6,5) occ(6,6,1) occ(11,6,6) occ(21,6,7) occ(36,6,8) occ(43,6,2) occ(49,6,3) occ(55,6,4) occ(13,7,8) occ(17,7,6) occ(35,7,7) occ(39,7,3) occ(47,7,5) occ(53,7,2) occ(4,8,2) occ(19,8,8) occ(37,8,5) occ(41,8,1) occ(45,8,3)
Optimization: -56
Answer: 22
occ(1,8,4) occ(1,7,1) occ(1,8,7) occ(1,3,3) occ(1,2,1) occ(2,7,4) occ(3,8,6) coverage(57) occ(15,1,1) occ(19,1,5) occ(22,1,6) occ(28,1,7) occ(50,1,4) occ(11,2,4) occ(17,2,3) occ(20,2,8) occ(26,2,5) occ(32,2,6) occ(48,2,2) occ(54,2,7) occ(13,3,2) occ(18,3,6) occ(21,3,4) occ(24,3,7) occ(30,3,8) occ(44,3,1) occ(52,3,5) occ(8,4,2) occ(9,4,5) occ(31,4,6) occ(34,4,7) occ(40,4,4) occ(46,4,3) occ(56,4,8) occ(7,5,3) occ(10,5,4) occ(16,5,7) occ(23,5,5) occ(33,5,8) occ(38,5,6) occ(42,5,2) occ(51,5,1) occ(5,6,5) occ(6,6,1) occ(12,6,6) occ(29,6,7) occ(36,6,8) occ(43,6,2) occ(49,6,3) occ(55,6,4) occ(14,7,8) occ(25,7,6) occ(35,7,7) occ(39,7,3) occ(47,7,5) occ(53,7,2) occ(4,8,2) occ(27,8,8) occ(37,8,5) occ(41,8,1) occ(45,8,3)
Optimization: -57
Answer: 23
occ(1,8,4) occ(1,7,1) occ(1,8,7) occ(1,3,3) occ(1,2,1) occ(2,7,4) occ(3,8,6) coverage(58) occ(16,1,5) occ(20,1,7) occ(21,1,6) occ(24,1,3) occ(42,1,4) occ(53,1,2) occ(56,1,1) occ(14,2,7) occ(22,2,5) occ(23,2,8) occ(40,2,6) occ(44,2,2) occ(54,2,3) occ(55,2,4) occ(13,3,8) occ(18,3,6) occ(19,3,7) occ(26,3,2) occ(38,3,4) occ(51,3,1) occ(59,3,5) occ(9,4,5) occ(12,4,8) occ(15,4,6) occ(25,4,7) occ(36,4,2) occ(46,4,1) occ(52,4,4) occ(57,4,3) occ(4,5,5) occ(11,5,7) occ(17,5,8) occ(28,5,1) occ(29,5,6) occ(41,5,4) occ(48,5,3) occ(49,5,2) occ(7,6,6) occ(10,6,7) occ(27,6,8) occ(30,6,3) occ(34,6,1) occ(39,6,2) occ(47,6,4) occ(50,6,5) occ(5,7,8) occ(6,7,6) occ(31,7,7) occ(35,7,3) occ(43,7,5) occ(8,8,8) occ(32,8,2) occ(33,8,5) occ(37,8,1) occ(45,8,3)
Optimization: -58
Answer: 24
occ(1,8,4) occ(1,7,1) occ(1,8,7) occ(1,3,3) occ(1,2,1) occ(2,7,4) occ(3,8,6) coverage(59) occ(11,1,7) occ(15,1,3) occ(21,1,4) occ(42,1,2) occ(47,1,1) occ(57,1,6) occ(58,1,8) occ(10,2,7) occ(13,2,5) occ(19,2,6) occ(24,2,2) occ(44,2,4) occ(45,2,3) occ(55,2,8) occ(9,3,8) occ(17,3,4) occ(23,3,5) occ(40,3,1) occ(49,3,2) occ(53,3,6) occ(56,3,7) occ(8,4,6) occ(12,4,8) occ(22,4,1) occ(25,4,7) occ(26,4,3) occ(43,4,2) occ(46,4,5) occ(51,4,4) occ(6,5,4) occ(7,5,7) occ(14,5,6) occ(28,5,1) occ(35,5,5) occ(38,5,2) occ(48,5,3) occ(54,5,8) occ(4,6,6) occ(20,6,2) occ(27,6,8) occ(32,6,4) occ(33,6,7) occ(37,6,3) occ(41,6,1) occ(50,6,5) occ(5,7,8) occ(16,7,5) occ(29,7,6) occ(30,7,2) occ(36,7,3) occ(52,7,7) occ(18,8,3) occ(31,8,8) occ(34,8,5) occ(39,8,2)
Optimization: -59
Answer: 25
occ(1,8,4) occ(1,7,1) occ(1,8,7) occ(1,3,3) occ(1,2,1) occ(2,7,4) occ(3,8,6) coverage(60) occ(13,1,8) occ(21,1,6) occ(32,1,5) occ(36,1,7) occ(40,1,3) occ(44,1,1) occ(50,1,4) occ(11,2,6) occ(19,2,4) occ(23,2,8) occ(30,2,7) occ(38,2,5) occ(46,2,3) occ(52,2,2) occ(9,3,8) occ(15,3,7) occ(34,3,6) occ(41,3,4) occ(42,3,2) occ(48,3,5) occ(59,3,1) occ(8,4,2) occ(17,4,5) occ(25,4,7) occ(28,4,8) occ(37,4,3) occ(43,4,6) occ(54,4,1) occ(55,4,4) occ(7,5,7) occ(10,5,4) occ(29,5,6) occ(35,5,1) occ(39,5,5) occ(45,5,8) occ(56,5,3) occ(57,5,2) occ(6,6,1) occ(16,6,2) occ(20,6,4) occ(26,6,7) occ(27,6,8) occ(33,6,3) occ(47,6,6) occ(53,6,5) occ(5,7,8) occ(12,7,3) occ(22,7,6) occ(31,7,5) occ(51,7,7) occ(58,7,2) occ(4,8,2) occ(14,8,1) occ(18,8,3) occ(24,8,8) occ(49,8,5)
Optimization: -60
*** Info : (clingo): INTERRUPTED by signal!
SATISFIABLE

TIME LIMIT   : 1
Models       : 25+
  Optimum    : unknown
Optimization : -60
Calls        : 1
Time         : 300.000s (Solving: 299.69s 1st Model: 0.00s Unsat: 0.00s)
CPU Time     : 299.979s
